\Problem : vne
Minimize
obj :  + 0.11212553619167917 Xm45w0 + 0.12138744168585541 Xm51w0 + 0.08837879744633576 Xm45w1 + 0.09567915111632919 Xm51w1 + 0.09347953215158948 Xm45w2 + 0.10120122180262262 Xm51w2 + 0.10558471378044587 Xm45w3 + 0.11430632773101272 Xm51w3 + 0.10048393627588885 Xm45w4 + 0.10878421071006521 Xm51w4 + 0.17117941297847178 Xm42w5 + 0.12441572093129072 Xm51w5 + 0.13643274768209568 Xm42w6 + 0.09916133234806446 Xm51w6 + 0.0981286669636317 Xm51w7 + 0.12535757760194766 vs37vd39ss0sd1 + 0.12535757760194766 vs37vd39ss1sd0 + 0.11452461545946771 vs37vd39ss0sd2 + 0.11452461545946771 vs37vd39ss2sd0 + 0.11180549900930976 vs37vd39ss0sd3 + 0.11180549900930976 vs37vd39ss3sd0 + 0.1562704502129193 vs37vd39ss0sd7 + 0.1562704502129193 vs37vd39ss7sd0 + 0.1474531071019473 vs37vd39ss1sd2 + 0.1474531071019473 vs37vd39ss2sd1 + 0.13547713407113846 vs37vd39ss1sd5 + 0.13547713407113846 vs37vd39ss5sd1 + 0.1587180796239392 vs37vd39ss1sd6 + 0.1587180796239392 vs37vd39ss6sd1 + 0.12500474163764785 vs37vd39ss1sd8 + 0.12500474163764785 vs37vd39ss8sd1 + 0.11718977816658488 vs37vd39ss2sd3 + 0.11718977816658488 vs37vd39ss3sd2 + 0.1474557462726638 vs37vd39ss2sd4 + 0.1474557462726638 vs37vd39ss4sd2 + 0.11059205713173456 vs37vd39ss2sd6 + 0.11059205713173456 vs37vd39ss6sd2 + 0.11029372389418443 vs37vd39ss3sd4 + 0.11029372389418443 vs37vd39ss4sd3 + 0.13284903408907667 vs37vd39ss3sd7 + 0.13284903408907667 vs37vd39ss7sd3 + 0.13757660771838418 vs37vd39ss3sd8 + 0.13757660771838418 vs37vd39ss8sd3 + 0.12287923872593984 vs37vd39ss4sd5 + 0.12287923872593984 vs37vd39ss5sd4 + 0.12966562527051378 vs37vd39ss4sd7 + 0.12966562527051378 vs37vd39ss7sd4 + 0.13385922724466254 vs37vd39ss4sd9 + 0.13385922724466254 vs37vd39ss9sd4 + 0.15143605532833967 vs37vd39ss5sd6 + 0.15143605532833967 vs37vd39ss6sd5 + 0.11621690248134409 vs37vd39ss5sd9 + 0.11621690248134409 vs37vd39ss9sd5 + 0.16171202559598002 vs37vd39ss5sd10 + 0.16171202559598002 vs37vd39ss10sd5 + 0.16430829369471783 vs37vd39ss6sd10 + 0.16430829369471783 vs37vd39ss10sd6 + 0.12128907831489373 vs37vd39ss7sd8 + 0.12128907831489373 vs37vd39ss8sd7 + 0.11051713729961768 vs37vd39ss7sd9 + 0.11051713729961768 vs37vd39ss9sd7 + 0.1157621105139284 vs37vd39ss8sd9 + 0.1157621105139284 vs37vd39ss9sd8 + 0.15391441622373964 vs37vd39ss8sd10 + 0.15391441622373964 vs37vd39ss10sd8 + 0.11513923342999893 vs37vd39ss9sd10 + 0.11513923342999893 vs37vd39ss10sd9 + 0.016476983523016478 vs37vd39ss42sd5 + 0.016476983523016478 vs37vd39ss5sd42 + 0.016476983523016478 vs37vd39ss42sd6 + 0.016476983523016478 vs37vd39ss6sd42 + 0.016476983523016478 vs37vd39ss45sd0 + 0.016476983523016478 vs37vd39ss0sd45 + 0.016476983523016478 vs37vd39ss45sd1 + 0.016476983523016478 vs37vd39ss1sd45 + 0.016476983523016478 vs37vd39ss45sd2 + 0.016476983523016478 vs37vd39ss2sd45 + 0.016476983523016478 vs37vd39ss45sd3 + 0.016476983523016478 vs37vd39ss3sd45 + 0.016476983523016478 vs37vd39ss45sd4 + 0.016476983523016478 vs37vd39ss4sd45 + 0.016476983523016478 vs37vd39ss51sd0 + 0.016476983523016478 vs37vd39ss0sd51 + 0.016476983523016478 vs37vd39ss51sd1 + 0.016476983523016478 vs37vd39ss1sd51 + 0.016476983523016478 vs37vd39ss51sd2 + 0.016476983523016478 vs37vd39ss2sd51 + 0.016476983523016478 vs37vd39ss51sd3 + 0.016476983523016478 vs37vd39ss3sd51 + 0.016476983523016478 vs37vd39ss51sd4 + 0.016476983523016478 vs37vd39ss4sd51 + 0.016476983523016478 vs37vd39ss51sd5 + 0.016476983523016478 vs37vd39ss5sd51 + 0.016476983523016478 vs37vd39ss51sd6 + 0.016476983523016478 vs37vd39ss6sd51 + 0.016476983523016478 vs37vd39ss51sd7 + 0.016476983523016478 vs37vd39ss7sd51 + 0.13126902008521 vs37vd38ss0sd1 + 0.13126902008521 vs37vd38ss1sd0 + 0.11992521181875682 vs37vd38ss0sd2 + 0.11992521181875682 vs37vd38ss2sd0 + 0.11707787096599083 vs37vd38ss0sd3 + 0.11707787096599083 vs37vd38ss3sd0 + 0.16363963998141107 vs37vd38ss0sd7 + 0.16363963998141107 vs37vd38ss7sd0 + 0.1544065005727377 vs37vd38ss1sd2 + 0.1544065005727377 vs37vd38ss2sd1 + 0.1418657808620151 vs37vd38ss1sd5 + 0.1418657808620151 vs37vd38ss5sd1 + 0.1662026913777658 vs37vd38ss1sd6 + 0.1662026913777658 vs37vd38ss6sd1 + 0.13089954556144784 vs37vd38ss1sd8 + 0.13089954556144784 vs37vd38ss8sd1 + 0.12271605465110491 vs37vd38ss2sd3 + 0.12271605465110491 vs37vd38ss3sd2 + 0.15440926419788442 vs37vd38ss2sd4 + 0.15440926419788442 vs37vd38ss4sd2 + 0.11580720724348778 vs37vd38ss2sd6 + 0.11580720724348778 vs37vd38ss6sd2 + 0.11549480561208098 vs37vd38ss3sd4 + 0.11549480561208098 vs37vd38ss4sd3 + 0.13911374850840133 vs37vd38ss3sd7 + 0.13911374850840133 vs37vd38ss7sd3 + 0.1440642586376768 vs37vd38ss3sd8 + 0.1440642586376768 vs37vd38ss8sd3 + 0.12867381106860268 vs37vd38ss4sd5 + 0.12867381106860268 vs37vd38ss5sd4 + 0.13578022081795504 vs37vd38ss4sd7 + 0.13578022081795504 vs37vd38ss7sd4 + 0.14017157898157476 vs37vd38ss4sd9 + 0.14017157898157476 vs37vd38ss9sd4 + 0.15857727126510732 vs37vd38ss5sd6 + 0.15857727126510732 vs37vd38ss6sd5 + 0.12169730141488808 vs37vd38ss5sd9 + 0.12169730141488808 vs37vd38ss9sd5 + 0.16933782178995202 vs37vd38ss5sd10 + 0.16933782178995202 vs37vd38ss10sd5 + 0.17205652117549686 vs37vd38ss6sd10 + 0.17205652117549686 vs37vd38ss10sd6 + 0.12700866403138777 vs37vd38ss7sd8 + 0.12700866403138777 vs37vd38ss8sd7 + 0.11572875444362467 vs37vd38ss7sd9 + 0.11572875444362467 vs37vd38ss9sd7 + 0.12122106298521095 vs37vd38ss8sd9 + 0.12122106298521095 vs37vd38ss9sd8 + 0.16117250333946737 vs37vd38ss8sd10 + 0.16117250333946737 vs37vd38ss10sd8 + 0.12056881310925543 vs37vd38ss9sd10 + 0.12056881310925543 vs37vd38ss10sd9 + 0.017253982746017256 vs37vd38ss42sd5 + 0.017253982746017256 vs37vd38ss5sd42 + 0.017253982746017256 vs37vd38ss42sd6 + 0.017253982746017256 vs37vd38ss6sd42 + 0.017253982746017256 vs37vd38ss45sd0 + 0.017253982746017256 vs37vd38ss0sd45 + 0.017253982746017256 vs37vd38ss45sd1 + 0.017253982746017256 vs37vd38ss1sd45 + 0.017253982746017256 vs37vd38ss45sd2 + 0.017253982746017256 vs37vd38ss2sd45 + 0.017253982746017256 vs37vd38ss45sd3 + 0.017253982746017256 vs37vd38ss3sd45 + 0.017253982746017256 vs37vd38ss45sd4 + 0.017253982746017256 vs37vd38ss4sd45 + 0.017253982746017256 vs37vd38ss51sd0 + 0.017253982746017256 vs37vd38ss0sd51 + 0.017253982746017256 vs37vd38ss51sd1 + 0.017253982746017256 vs37vd38ss1sd51 + 0.017253982746017256 vs37vd38ss51sd2 + 0.017253982746017256 vs37vd38ss2sd51 + 0.017253982746017256 vs37vd38ss51sd3 + 0.017253982746017256 vs37vd38ss3sd51 + 0.017253982746017256 vs37vd38ss51sd4 + 0.017253982746017256 vs37vd38ss4sd51 + 0.017253982746017256 vs37vd38ss51sd5 + 0.017253982746017256 vs37vd38ss5sd51 + 0.017253982746017256 vs37vd38ss51sd6 + 0.017253982746017256 vs37vd38ss6sd51 + 0.017253982746017256 vs37vd38ss51sd7 + 0.017253982746017256 vs37vd38ss7sd51
Subject To
 + 13.06441897490969 Xm45w0 + 14.14357915546913 Xm51w0<=116.515
 + 13.06441897490969 Xm45w1 + 14.14357915546913 Xm51w1<=147.822
 + 13.06441897490969 Xm45w2 + 14.14357915546913 Xm51w2<=139.756
 + 13.06441897490969 Xm45w3 + 14.14357915546913 Xm51w3<=123.733
 + 13.06441897490969 Xm45w4 + 14.14357915546913 Xm51w4<=130.014
 + 19.459675667392673 Xm42w5 + 14.14357915546913 Xm51w5<=113.679
 + 19.459675667392673 Xm42w6 + 14.14357915546913 Xm51w6<=142.631
 + 14.14357915546913 Xm51w7<=144.132
<=123.259
<=128.263
<=104.708
+Xm45w0+Xm51w0<=1
+Xm45w1+Xm51w1<=1
+Xm45w2+Xm51w2<=1
+Xm45w3+Xm51w3<=1
+Xm45w4+Xm51w4<=1
+Xm42w5+Xm51w5<=1
+Xm42w6+Xm51w6<=1
+Xm51w7<=1
<=1
<=1
<=1
 +Xm42w5 +Xm42w6=1
 +Xm45w0 +Xm45w1 +Xm45w2 +Xm45w3 +Xm45w4=1
 +Xm51w0 +Xm51w1 +Xm51w2 +Xm51w3 +Xm51w4 +Xm51w5 +Xm51w6 +Xm51w7=1
 + vs37vd39ss0sd1 - vs37vd39ss1sd0 + vs37vd39ss0sd2 - vs37vd39ss2sd0 + vs37vd39ss0sd3 - vs37vd39ss3sd0 + vs37vd39ss0sd7 - vs37vd39ss7sd0 + vs37vd39ss0sd45 - vs37vd39ss45sd0 + vs37vd39ss0sd51 - vs37vd39ss51sd0 = 0
 + vs37vd39ss1sd0 - vs37vd39ss0sd1 + vs37vd39ss1sd2 - vs37vd39ss2sd1 + vs37vd39ss1sd5 - vs37vd39ss5sd1 + vs37vd39ss1sd6 - vs37vd39ss6sd1 + vs37vd39ss1sd8 - vs37vd39ss8sd1 + vs37vd39ss1sd45 - vs37vd39ss45sd1 + vs37vd39ss1sd51 - vs37vd39ss51sd1 = 0
 + vs37vd39ss2sd0 - vs37vd39ss0sd2 + vs37vd39ss2sd1 - vs37vd39ss1sd2 + vs37vd39ss2sd3 - vs37vd39ss3sd2 + vs37vd39ss2sd4 - vs37vd39ss4sd2 + vs37vd39ss2sd6 - vs37vd39ss6sd2 + vs37vd39ss2sd45 - vs37vd39ss45sd2 + vs37vd39ss2sd51 - vs37vd39ss51sd2 = 0
 + vs37vd39ss3sd0 - vs37vd39ss0sd3 + vs37vd39ss3sd2 - vs37vd39ss2sd3 + vs37vd39ss3sd4 - vs37vd39ss4sd3 + vs37vd39ss3sd7 - vs37vd39ss7sd3 + vs37vd39ss3sd8 - vs37vd39ss8sd3 + vs37vd39ss3sd45 - vs37vd39ss45sd3 + vs37vd39ss3sd51 - vs37vd39ss51sd3 = 0
 + vs37vd39ss7sd0 - vs37vd39ss0sd7 + vs37vd39ss7sd3 - vs37vd39ss3sd7 + vs37vd39ss7sd4 - vs37vd39ss4sd7 + vs37vd39ss7sd8 - vs37vd39ss8sd7 + vs37vd39ss7sd9 - vs37vd39ss9sd7 + vs37vd39ss7sd51 - vs37vd39ss51sd7 = 0
 + vs37vd39ss5sd1 - vs37vd39ss1sd5 + vs37vd39ss5sd4 - vs37vd39ss4sd5 + vs37vd39ss5sd6 - vs37vd39ss6sd5 + vs37vd39ss5sd9 - vs37vd39ss9sd5 + vs37vd39ss5sd10 - vs37vd39ss10sd5 + vs37vd39ss5sd42 - vs37vd39ss42sd5 + vs37vd39ss5sd51 - vs37vd39ss51sd5 = 0
 + vs37vd39ss6sd1 - vs37vd39ss1sd6 + vs37vd39ss6sd2 - vs37vd39ss2sd6 + vs37vd39ss6sd5 - vs37vd39ss5sd6 + vs37vd39ss6sd10 - vs37vd39ss10sd6 + vs37vd39ss6sd42 - vs37vd39ss42sd6 + vs37vd39ss6sd51 - vs37vd39ss51sd6 = 0
 + vs37vd39ss8sd1 - vs37vd39ss1sd8 + vs37vd39ss8sd3 - vs37vd39ss3sd8 + vs37vd39ss8sd7 - vs37vd39ss7sd8 + vs37vd39ss8sd9 - vs37vd39ss9sd8 + vs37vd39ss8sd10 - vs37vd39ss10sd8 = 0
 + vs37vd39ss4sd2 - vs37vd39ss2sd4 + vs37vd39ss4sd3 - vs37vd39ss3sd4 + vs37vd39ss4sd5 - vs37vd39ss5sd4 + vs37vd39ss4sd7 - vs37vd39ss7sd4 + vs37vd39ss4sd9 - vs37vd39ss9sd4 + vs37vd39ss4sd45 - vs37vd39ss45sd4 + vs37vd39ss4sd51 - vs37vd39ss51sd4 = 0
 + vs37vd39ss9sd4 - vs37vd39ss4sd9 + vs37vd39ss9sd5 - vs37vd39ss5sd9 + vs37vd39ss9sd7 - vs37vd39ss7sd9 + vs37vd39ss9sd8 - vs37vd39ss8sd9 + vs37vd39ss9sd10 - vs37vd39ss10sd9 = 0
 + vs37vd39ss10sd5 - vs37vd39ss5sd10 + vs37vd39ss10sd6 - vs37vd39ss6sd10 + vs37vd39ss10sd8 - vs37vd39ss8sd10 + vs37vd39ss10sd9 - vs37vd39ss9sd10 = 0
 + vs37vd39ss42sd5 - vs37vd39ss5sd42 + vs37vd39ss42sd6 - vs37vd39ss6sd42 = 1
 + vs37vd39ss45sd0 - vs37vd39ss0sd45 + vs37vd39ss45sd1 - vs37vd39ss1sd45 + vs37vd39ss45sd2 - vs37vd39ss2sd45 + vs37vd39ss45sd3 - vs37vd39ss3sd45 + vs37vd39ss45sd4 - vs37vd39ss4sd45 = 0
 + vs37vd39ss51sd0 - vs37vd39ss0sd51 + vs37vd39ss51sd1 - vs37vd39ss1sd51 + vs37vd39ss51sd2 - vs37vd39ss2sd51 + vs37vd39ss51sd3 - vs37vd39ss3sd51 + vs37vd39ss51sd4 - vs37vd39ss4sd51 + vs37vd39ss51sd5 - vs37vd39ss5sd51 + vs37vd39ss51sd6 - vs37vd39ss6sd51 + vs37vd39ss51sd7 - vs37vd39ss7sd51 = -1
 + vs37vd38ss0sd1 - vs37vd38ss1sd0 + vs37vd38ss0sd2 - vs37vd38ss2sd0 + vs37vd38ss0sd3 - vs37vd38ss3sd0 + vs37vd38ss0sd7 - vs37vd38ss7sd0 + vs37vd38ss0sd45 - vs37vd38ss45sd0 + vs37vd38ss0sd51 - vs37vd38ss51sd0 = 0
 + vs37vd38ss1sd0 - vs37vd38ss0sd1 + vs37vd38ss1sd2 - vs37vd38ss2sd1 + vs37vd38ss1sd5 - vs37vd38ss5sd1 + vs37vd38ss1sd6 - vs37vd38ss6sd1 + vs37vd38ss1sd8 - vs37vd38ss8sd1 + vs37vd38ss1sd45 - vs37vd38ss45sd1 + vs37vd38ss1sd51 - vs37vd38ss51sd1 = 0
 + vs37vd38ss2sd0 - vs37vd38ss0sd2 + vs37vd38ss2sd1 - vs37vd38ss1sd2 + vs37vd38ss2sd3 - vs37vd38ss3sd2 + vs37vd38ss2sd4 - vs37vd38ss4sd2 + vs37vd38ss2sd6 - vs37vd38ss6sd2 + vs37vd38ss2sd45 - vs37vd38ss45sd2 + vs37vd38ss2sd51 - vs37vd38ss51sd2 = 0
 + vs37vd38ss3sd0 - vs37vd38ss0sd3 + vs37vd38ss3sd2 - vs37vd38ss2sd3 + vs37vd38ss3sd4 - vs37vd38ss4sd3 + vs37vd38ss3sd7 - vs37vd38ss7sd3 + vs37vd38ss3sd8 - vs37vd38ss8sd3 + vs37vd38ss3sd45 - vs37vd38ss45sd3 + vs37vd38ss3sd51 - vs37vd38ss51sd3 = 0
 + vs37vd38ss7sd0 - vs37vd38ss0sd7 + vs37vd38ss7sd3 - vs37vd38ss3sd7 + vs37vd38ss7sd4 - vs37vd38ss4sd7 + vs37vd38ss7sd8 - vs37vd38ss8sd7 + vs37vd38ss7sd9 - vs37vd38ss9sd7 + vs37vd38ss7sd51 - vs37vd38ss51sd7 = 0
 + vs37vd38ss5sd1 - vs37vd38ss1sd5 + vs37vd38ss5sd4 - vs37vd38ss4sd5 + vs37vd38ss5sd6 - vs37vd38ss6sd5 + vs37vd38ss5sd9 - vs37vd38ss9sd5 + vs37vd38ss5sd10 - vs37vd38ss10sd5 + vs37vd38ss5sd42 - vs37vd38ss42sd5 + vs37vd38ss5sd51 - vs37vd38ss51sd5 = 0
 + vs37vd38ss6sd1 - vs37vd38ss1sd6 + vs37vd38ss6sd2 - vs37vd38ss2sd6 + vs37vd38ss6sd5 - vs37vd38ss5sd6 + vs37vd38ss6sd10 - vs37vd38ss10sd6 + vs37vd38ss6sd42 - vs37vd38ss42sd6 + vs37vd38ss6sd51 - vs37vd38ss51sd6 = 0
 + vs37vd38ss8sd1 - vs37vd38ss1sd8 + vs37vd38ss8sd3 - vs37vd38ss3sd8 + vs37vd38ss8sd7 - vs37vd38ss7sd8 + vs37vd38ss8sd9 - vs37vd38ss9sd8 + vs37vd38ss8sd10 - vs37vd38ss10sd8 = 0
 + vs37vd38ss4sd2 - vs37vd38ss2sd4 + vs37vd38ss4sd3 - vs37vd38ss3sd4 + vs37vd38ss4sd5 - vs37vd38ss5sd4 + vs37vd38ss4sd7 - vs37vd38ss7sd4 + vs37vd38ss4sd9 - vs37vd38ss9sd4 + vs37vd38ss4sd45 - vs37vd38ss45sd4 + vs37vd38ss4sd51 - vs37vd38ss51sd4 = 0
 + vs37vd38ss9sd4 - vs37vd38ss4sd9 + vs37vd38ss9sd5 - vs37vd38ss5sd9 + vs37vd38ss9sd7 - vs37vd38ss7sd9 + vs37vd38ss9sd8 - vs37vd38ss8sd9 + vs37vd38ss9sd10 - vs37vd38ss10sd9 = 0
 + vs37vd38ss10sd5 - vs37vd38ss5sd10 + vs37vd38ss10sd6 - vs37vd38ss6sd10 + vs37vd38ss10sd8 - vs37vd38ss8sd10 + vs37vd38ss10sd9 - vs37vd38ss9sd10 = 0
 + vs37vd38ss42sd5 - vs37vd38ss5sd42 + vs37vd38ss42sd6 - vs37vd38ss6sd42 = 1
 + vs37vd38ss45sd0 - vs37vd38ss0sd45 + vs37vd38ss45sd1 - vs37vd38ss1sd45 + vs37vd38ss45sd2 - vs37vd38ss2sd45 + vs37vd38ss45sd3 - vs37vd38ss3sd45 + vs37vd38ss45sd4 - vs37vd38ss4sd45 = -1
 + vs37vd38ss51sd0 - vs37vd38ss0sd51 + vs37vd38ss51sd1 - vs37vd38ss1sd51 + vs37vd38ss51sd2 - vs37vd38ss2sd51 + vs37vd38ss51sd3 - vs37vd38ss3sd51 + vs37vd38ss51sd4 - vs37vd38ss4sd51 + vs37vd38ss51sd5 - vs37vd38ss5sd51 + vs37vd38ss51sd6 - vs37vd38ss6sd51 + vs37vd38ss51sd7 - vs37vd38ss7sd51 = 0
 + 16.477 vs37vd39ss0sd1 + 16.477 vs37vd39ss1sd0 + 17.254 vs37vd38ss0sd1 + 17.254 vs37vd38ss1sd0 <= 131.439
 + 16.477 vs37vd39ss0sd2 + 16.477 vs37vd39ss2sd0 + 17.254 vs37vd38ss0sd2 + 17.254 vs37vd38ss2sd0 <= 143.872
 + 16.477 vs37vd39ss0sd3 + 16.477 vs37vd39ss3sd0 + 17.254 vs37vd38ss0sd3 + 17.254 vs37vd38ss3sd0 <= 147.371
 + 16.477 vs37vd39ss0sd7 + 16.477 vs37vd39ss7sd0 + 17.254 vs37vd38ss0sd7 + 17.254 vs37vd38ss7sd0 <= 105.438
 + 16.477 vs37vd39ss1sd2 + 16.477 vs37vd39ss2sd1 + 17.254 vs37vd38ss1sd2 + 17.254 vs37vd38ss2sd1 <= 111.743
 + 16.477 vs37vd39ss1sd5 + 16.477 vs37vd39ss5sd1 + 17.254 vs37vd38ss1sd5 + 17.254 vs37vd38ss5sd1 <= 121.621
 + 16.477 vs37vd39ss1sd6 + 16.477 vs37vd39ss6sd1 + 17.254 vs37vd38ss1sd6 + 17.254 vs37vd38ss6sd1 <= 103.812
 + 16.477 vs37vd39ss1sd8 + 16.477 vs37vd39ss8sd1 + 17.254 vs37vd38ss1sd8 + 17.254 vs37vd38ss8sd1 <= 131.81
 + 16.477 vs37vd39ss2sd3 + 16.477 vs37vd39ss3sd2 + 17.254 vs37vd38ss2sd3 + 17.254 vs37vd38ss3sd2 <= 140.6
 + 16.477 vs37vd39ss2sd4 + 16.477 vs37vd39ss4sd2 + 17.254 vs37vd38ss2sd4 + 17.254 vs37vd38ss4sd2 <= 111.741
 + 16.477 vs37vd39ss2sd6 + 16.477 vs37vd39ss6sd2 + 17.254 vs37vd38ss2sd6 + 17.254 vs37vd38ss6sd2 <= 148.988
 + 16.477 vs37vd39ss3sd4 + 16.477 vs37vd39ss4sd3 + 17.254 vs37vd38ss3sd4 + 17.254 vs37vd38ss4sd3 <= 149.391
 + 16.477 vs37vd39ss3sd7 + 16.477 vs37vd39ss7sd3 + 17.254 vs37vd38ss3sd7 + 17.254 vs37vd38ss7sd3 <= 124.027
 + 16.477 vs37vd39ss3sd8 + 16.477 vs37vd39ss8sd3 + 17.254 vs37vd38ss3sd8 + 17.254 vs37vd38ss8sd3 <= 119.765
 + 16.477 vs37vd39ss4sd5 + 16.477 vs37vd39ss5sd4 + 17.254 vs37vd38ss4sd5 + 17.254 vs37vd38ss5sd4 <= 134.09
 + 16.477 vs37vd39ss4sd7 + 16.477 vs37vd39ss7sd4 + 17.254 vs37vd38ss4sd7 + 17.254 vs37vd38ss7sd4 <= 127.072
 + 16.477 vs37vd39ss4sd9 + 16.477 vs37vd39ss9sd4 + 17.254 vs37vd38ss4sd9 + 17.254 vs37vd38ss9sd4 <= 123.091
 + 16.477 vs37vd39ss5sd6 + 16.477 vs37vd39ss6sd5 + 17.254 vs37vd38ss5sd6 + 17.254 vs37vd38ss6sd5 <= 108.804
 + 16.477 vs37vd39ss5sd9 + 16.477 vs37vd39ss9sd5 + 17.254 vs37vd38ss5sd9 + 17.254 vs37vd38ss9sd5 <= 141.777
 + 16.477 vs37vd39ss5sd10 + 16.477 vs37vd39ss10sd5 + 17.254 vs37vd38ss5sd10 + 17.254 vs37vd38ss10sd5 <= 101.89
 + 16.477 vs37vd39ss6sd10 + 16.477 vs37vd39ss10sd6 + 17.254 vs37vd38ss6sd10 + 17.254 vs37vd38ss10sd6 <= 100.28
 + 16.477 vs37vd39ss7sd8 + 16.477 vs37vd39ss8sd7 + 17.254 vs37vd38ss7sd8 + 17.254 vs37vd38ss8sd7 <= 135.848
 + 16.477 vs37vd39ss7sd9 + 16.477 vs37vd39ss9sd7 + 17.254 vs37vd38ss7sd9 + 17.254 vs37vd38ss9sd7 <= 149.089
 + 16.477 vs37vd39ss8sd9 + 16.477 vs37vd39ss9sd8 + 17.254 vs37vd38ss8sd9 + 17.254 vs37vd38ss9sd8 <= 142.334
 + 16.477 vs37vd39ss8sd10 + 16.477 vs37vd39ss10sd8 + 17.254 vs37vd38ss8sd10 + 17.254 vs37vd38ss10sd8 <= 107.052
 + 16.477 vs37vd39ss9sd10 + 16.477 vs37vd39ss10sd9 + 17.254 vs37vd38ss9sd10 + 17.254 vs37vd38ss10sd9 <= 143.104
 + 16.477 vs37vd39ss42sd5 + 16.477 vs37vd39ss5sd42 + 17.254 vs37vd38ss42sd5 + 17.254 vs37vd38ss5sd42 <= 1000.0
 + 16.477 vs37vd39ss42sd6 + 16.477 vs37vd39ss6sd42 + 17.254 vs37vd38ss42sd6 + 17.254 vs37vd38ss6sd42 <= 1000.0
 + 16.477 vs37vd39ss45sd0 + 16.477 vs37vd39ss0sd45 + 17.254 vs37vd38ss45sd0 + 17.254 vs37vd38ss0sd45 <= 1000.0
 + 16.477 vs37vd39ss45sd1 + 16.477 vs37vd39ss1sd45 + 17.254 vs37vd38ss45sd1 + 17.254 vs37vd38ss1sd45 <= 1000.0
 + 16.477 vs37vd39ss45sd2 + 16.477 vs37vd39ss2sd45 + 17.254 vs37vd38ss45sd2 + 17.254 vs37vd38ss2sd45 <= 1000.0
 + 16.477 vs37vd39ss45sd3 + 16.477 vs37vd39ss3sd45 + 17.254 vs37vd38ss45sd3 + 17.254 vs37vd38ss3sd45 <= 1000.0
 + 16.477 vs37vd39ss45sd4 + 16.477 vs37vd39ss4sd45 + 17.254 vs37vd38ss45sd4 + 17.254 vs37vd38ss4sd45 <= 1000.0
 + 16.477 vs37vd39ss51sd0 + 16.477 vs37vd39ss0sd51 + 17.254 vs37vd38ss51sd0 + 17.254 vs37vd38ss0sd51 <= 1000.0
 + 16.477 vs37vd39ss51sd1 + 16.477 vs37vd39ss1sd51 + 17.254 vs37vd38ss51sd1 + 17.254 vs37vd38ss1sd51 <= 1000.0
 + 16.477 vs37vd39ss51sd2 + 16.477 vs37vd39ss2sd51 + 17.254 vs37vd38ss51sd2 + 17.254 vs37vd38ss2sd51 <= 1000.0
 + 16.477 vs37vd39ss51sd3 + 16.477 vs37vd39ss3sd51 + 17.254 vs37vd38ss51sd3 + 17.254 vs37vd38ss3sd51 <= 1000.0
 + 16.477 vs37vd39ss51sd4 + 16.477 vs37vd39ss4sd51 + 17.254 vs37vd38ss51sd4 + 17.254 vs37vd38ss4sd51 <= 1000.0
 + 16.477 vs37vd39ss51sd5 + 16.477 vs37vd39ss5sd51 + 17.254 vs37vd38ss51sd5 + 17.254 vs37vd38ss5sd51 <= 1000.0
 + 16.477 vs37vd39ss51sd6 + 16.477 vs37vd39ss6sd51 + 17.254 vs37vd38ss51sd6 + 17.254 vs37vd38ss6sd51 <= 1000.0
 + 16.477 vs37vd39ss51sd7 + 16.477 vs37vd39ss7sd51 + 17.254 vs37vd38ss51sd7 + 17.254 vs37vd38ss7sd51 <= 1000.0
Bounds
0<=Xm45w0<=1
0<=Xm51w0<=1
0<=Xm45w1<=1
0<=Xm51w1<=1
0<=Xm45w2<=1
0<=Xm51w2<=1
0<=Xm45w3<=1
0<=Xm51w3<=1
0<=Xm45w4<=1
0<=Xm51w4<=1
0<=Xm42w5<=1
0<=Xm51w5<=1
0<=Xm42w6<=1
0<=Xm51w6<=1
0<=Xm51w7<=1
0 <= vs37vd39ss0sd1 <= 1
0 <= vs37vd39ss1sd0 <= 1
0 <= vs37vd39ss0sd2 <= 1
0 <= vs37vd39ss2sd0 <= 1
0 <= vs37vd39ss0sd3 <= 1
0 <= vs37vd39ss3sd0 <= 1
0 <= vs37vd39ss0sd7 <= 1
0 <= vs37vd39ss7sd0 <= 1
0 <= vs37vd39ss1sd2 <= 1
0 <= vs37vd39ss2sd1 <= 1
0 <= vs37vd39ss1sd5 <= 1
0 <= vs37vd39ss5sd1 <= 1
0 <= vs37vd39ss1sd6 <= 1
0 <= vs37vd39ss6sd1 <= 1
0 <= vs37vd39ss1sd8 <= 1
0 <= vs37vd39ss8sd1 <= 1
0 <= vs37vd39ss2sd3 <= 1
0 <= vs37vd39ss3sd2 <= 1
0 <= vs37vd39ss2sd4 <= 1
0 <= vs37vd39ss4sd2 <= 1
0 <= vs37vd39ss2sd6 <= 1
0 <= vs37vd39ss6sd2 <= 1
0 <= vs37vd39ss3sd4 <= 1
0 <= vs37vd39ss4sd3 <= 1
0 <= vs37vd39ss3sd7 <= 1
0 <= vs37vd39ss7sd3 <= 1
0 <= vs37vd39ss3sd8 <= 1
0 <= vs37vd39ss8sd3 <= 1
0 <= vs37vd39ss4sd5 <= 1
0 <= vs37vd39ss5sd4 <= 1
0 <= vs37vd39ss4sd7 <= 1
0 <= vs37vd39ss7sd4 <= 1
0 <= vs37vd39ss4sd9 <= 1
0 <= vs37vd39ss9sd4 <= 1
0 <= vs37vd39ss5sd6 <= 1
0 <= vs37vd39ss6sd5 <= 1
0 <= vs37vd39ss5sd9 <= 1
0 <= vs37vd39ss9sd5 <= 1
0 <= vs37vd39ss5sd10 <= 1
0 <= vs37vd39ss10sd5 <= 1
0 <= vs37vd39ss6sd10 <= 1
0 <= vs37vd39ss10sd6 <= 1
0 <= vs37vd39ss7sd8 <= 1
0 <= vs37vd39ss8sd7 <= 1
0 <= vs37vd39ss7sd9 <= 1
0 <= vs37vd39ss9sd7 <= 1
0 <= vs37vd39ss8sd9 <= 1
0 <= vs37vd39ss9sd8 <= 1
0 <= vs37vd39ss8sd10 <= 1
0 <= vs37vd39ss10sd8 <= 1
0 <= vs37vd39ss9sd10 <= 1
0 <= vs37vd39ss10sd9 <= 1
0 <= vs37vd39ss42sd5 <= 1
0 <= vs37vd39ss5sd42 <= 1
0 <= vs37vd39ss42sd6 <= 1
0 <= vs37vd39ss6sd42 <= 1
0 <= vs37vd39ss45sd0 <= 1
0 <= vs37vd39ss0sd45 <= 1
0 <= vs37vd39ss45sd1 <= 1
0 <= vs37vd39ss1sd45 <= 1
0 <= vs37vd39ss45sd2 <= 1
0 <= vs37vd39ss2sd45 <= 1
0 <= vs37vd39ss45sd3 <= 1
0 <= vs37vd39ss3sd45 <= 1
0 <= vs37vd39ss45sd4 <= 1
0 <= vs37vd39ss4sd45 <= 1
0 <= vs37vd39ss51sd0 <= 1
0 <= vs37vd39ss0sd51 <= 1
0 <= vs37vd39ss51sd1 <= 1
0 <= vs37vd39ss1sd51 <= 1
0 <= vs37vd39ss51sd2 <= 1
0 <= vs37vd39ss2sd51 <= 1
0 <= vs37vd39ss51sd3 <= 1
0 <= vs37vd39ss3sd51 <= 1
0 <= vs37vd39ss51sd4 <= 1
0 <= vs37vd39ss4sd51 <= 1
0 <= vs37vd39ss51sd5 <= 1
0 <= vs37vd39ss5sd51 <= 1
0 <= vs37vd39ss51sd6 <= 1
0 <= vs37vd39ss6sd51 <= 1
0 <= vs37vd39ss51sd7 <= 1
0 <= vs37vd39ss7sd51 <= 1
0 <= vs37vd38ss0sd1 <= 1
0 <= vs37vd38ss1sd0 <= 1
0 <= vs37vd38ss0sd2 <= 1
0 <= vs37vd38ss2sd0 <= 1
0 <= vs37vd38ss0sd3 <= 1
0 <= vs37vd38ss3sd0 <= 1
0 <= vs37vd38ss0sd7 <= 1
0 <= vs37vd38ss7sd0 <= 1
0 <= vs37vd38ss1sd2 <= 1
0 <= vs37vd38ss2sd1 <= 1
0 <= vs37vd38ss1sd5 <= 1
0 <= vs37vd38ss5sd1 <= 1
0 <= vs37vd38ss1sd6 <= 1
0 <= vs37vd38ss6sd1 <= 1
0 <= vs37vd38ss1sd8 <= 1
0 <= vs37vd38ss8sd1 <= 1
0 <= vs37vd38ss2sd3 <= 1
0 <= vs37vd38ss3sd2 <= 1
0 <= vs37vd38ss2sd4 <= 1
0 <= vs37vd38ss4sd2 <= 1
0 <= vs37vd38ss2sd6 <= 1
0 <= vs37vd38ss6sd2 <= 1
0 <= vs37vd38ss3sd4 <= 1
0 <= vs37vd38ss4sd3 <= 1
0 <= vs37vd38ss3sd7 <= 1
0 <= vs37vd38ss7sd3 <= 1
0 <= vs37vd38ss3sd8 <= 1
0 <= vs37vd38ss8sd3 <= 1
0 <= vs37vd38ss4sd5 <= 1
0 <= vs37vd38ss5sd4 <= 1
0 <= vs37vd38ss4sd7 <= 1
0 <= vs37vd38ss7sd4 <= 1
0 <= vs37vd38ss4sd9 <= 1
0 <= vs37vd38ss9sd4 <= 1
0 <= vs37vd38ss5sd6 <= 1
0 <= vs37vd38ss6sd5 <= 1
0 <= vs37vd38ss5sd9 <= 1
0 <= vs37vd38ss9sd5 <= 1
0 <= vs37vd38ss5sd10 <= 1
0 <= vs37vd38ss10sd5 <= 1
0 <= vs37vd38ss6sd10 <= 1
0 <= vs37vd38ss10sd6 <= 1
0 <= vs37vd38ss7sd8 <= 1
0 <= vs37vd38ss8sd7 <= 1
0 <= vs37vd38ss7sd9 <= 1
0 <= vs37vd38ss9sd7 <= 1
0 <= vs37vd38ss8sd9 <= 1
0 <= vs37vd38ss9sd8 <= 1
0 <= vs37vd38ss8sd10 <= 1
0 <= vs37vd38ss10sd8 <= 1
0 <= vs37vd38ss9sd10 <= 1
0 <= vs37vd38ss10sd9 <= 1
0 <= vs37vd38ss42sd5 <= 1
0 <= vs37vd38ss5sd42 <= 1
0 <= vs37vd38ss42sd6 <= 1
0 <= vs37vd38ss6sd42 <= 1
0 <= vs37vd38ss45sd0 <= 1
0 <= vs37vd38ss0sd45 <= 1
0 <= vs37vd38ss45sd1 <= 1
0 <= vs37vd38ss1sd45 <= 1
0 <= vs37vd38ss45sd2 <= 1
0 <= vs37vd38ss2sd45 <= 1
0 <= vs37vd38ss45sd3 <= 1
0 <= vs37vd38ss3sd45 <= 1
0 <= vs37vd38ss45sd4 <= 1
0 <= vs37vd38ss4sd45 <= 1
0 <= vs37vd38ss51sd0 <= 1
0 <= vs37vd38ss0sd51 <= 1
0 <= vs37vd38ss51sd1 <= 1
0 <= vs37vd38ss1sd51 <= 1
0 <= vs37vd38ss51sd2 <= 1
0 <= vs37vd38ss2sd51 <= 1
0 <= vs37vd38ss51sd3 <= 1
0 <= vs37vd38ss3sd51 <= 1
0 <= vs37vd38ss51sd4 <= 1
0 <= vs37vd38ss4sd51 <= 1
0 <= vs37vd38ss51sd5 <= 1
0 <= vs37vd38ss5sd51 <= 1
0 <= vs37vd38ss51sd6 <= 1
0 <= vs37vd38ss6sd51 <= 1
0 <= vs37vd38ss51sd7 <= 1
0 <= vs37vd38ss7sd51 <= 1
General
END